1 100 600
2 1 1 6 1 2 1 1 4 0
3
9 4 8
0 40.0 50.0 0.0 0.0 0 1236
2 45.0 68.0 90.0 10.0 850 1030 97 0 0 0 1 0 0 0 1 0 0
3 45.0 70.0 90.0 30.0 758 938 20 0 0 1 1 0 0 0 0 1 0
4 42.0 66.0 90.0 10.0 16 196 7 1 0 0 1 0 0 0 0 0 1
5 42.0 68.0 90.0 10.0 665 845 64 0 0 0 0 0 1 0 0 0 0
6 42.0 65.0 90.0 10.0 15 195 75 0 1 0 0 0 1 0 0 0 0
7 40.0 69.0 90.0 20.0 572 752 60 0 0 0 1 1 0 0 1 0 0
8 40.0 66.0 90.0 20.0 108 288 37 0 0 0 0 1 0 0 0 0 0
9 38.0 68.0 90.0 20.0 200 380 14 0 0 0 0 0 1 1 0 0 1
10 38.0 70.0 90.0 10.0 480 660 12 0 0 0 0 0 1 0 0 0 0
11 35.0 66.0 90.0 10.0 294 474 21 0 1 0 0 0 0 0 0 0 0
12 35.0 69.0 90.0 10.0 387 567 87 0 0 1 0 1 0 0 0 0 0
13 25.0 85.0 90.0 20.0 597 777 65 1 0 0 0 0 1 1 0 1 1
14 22.0 75.0 90.0 30.0 30 210 27 0 0 0 0 0 0 1 1 0 0
15 22.0 85.0 90.0 10.0 504 684 12 0 0 0 0 1 0 0 0 0 0
16 20.0 80.0 90.0 40.0 317 497 88 1 0 0 0 0 0 0 0 0 0
17 20.0 85.0 90.0 40.0 412 592 44 0 1 0 1 0 0 0 0 1 0
18 18.0 75.0 90.0 20.0 34 214 26 0 0 0 0 0 1 0 0 0 0
19 15.0 75.0 90.0 20.0 127 307 5 0 0 0 0 0 0 0 0 1 0
20 15.0 80.0 90.0 10.0 222 402 84 0 1 0 0 1 0 0 0 0 0
21 30.0 50.0 90.0 10.0 10 190 2 1 0 0 0 0 0 0 0 1 0
22 30.0 52.0 90.0 20.0 850 1030 98 0 0 0 1 0 0 0 0 0 0
23 28.0 52.0 90.0 20.0 758 938 99 0 0 0 0 0 1 0 0 0 0
24 28.0 55.0 90.0 10.0 665 845 86 0 1 0 1 0 0 1 0 1 1
25 25.0 50.0 90.0 10.0 15 195 95 1 0 0 0 0 0 0 0 1 0
26 25.0 52.0 90.0 40.0 107 287 82 0 0 1 1 0 0 0 0 1 0
27 25.0 55.0 90.0 10.0 572 752 1 0 1 0 0 0 0 0 0 0 1
28 23.0 52.0 90.0 10.0 199 379 89 0 0 1 0 0 0 0 1 0 0
29 23.0 55.0 90.0 20.0 480 660 33 0 0 0 0 0 1 1 0 0 0
30 20.0 50.0 90.0 10.0 292 472 91 0 0 0 0 0 1 0 0 0 0
31 20.0 55.0 90.0 10.0 387 567 23 0 1 1 0 1 0 0 0 0 1
32 10.0 35.0 90.0 20.0 129 309 29 0 1 1 0 0 0 0 0 0 0
33 10.0 40.0 90.0 30.0 31 211 38 0 1 0 0 0 0 0 0 0 0
34 8.0 40.0 90.0 40.0 33 213 28 0 0 0 0 0 0 0 1 1 0
35 8.0 45.0 90.0 20.0 694 874 56 0 0 1 0 1 0 0 1 0 0
36 5.0 35.0 90.0 10.0 224 404 94 0 1 0 0 0 0 0 1 0 0
37 5.0 45.0 90.0 10.0 601 781 1 0 0 0 0 0 0 0 0 1 0
38 2.0 40.0 90.0 20.0 319 499 17 0 0 0 0 0 1 0 1 0 0
39 0.0 40.0 90.0 30.0 411 591 74 0 1 0 0 1 0 0 1 0 0
40 0.0 45.0 90.0 20.0 506 686 90 0 0 0 0 0 1 0 0 0 0
41 35.0 30.0 90.0 10.0 203 383 99 0 0 0 0 0 0 0 0 0 1
42 35.0 32.0 90.0 10.0 111 291 82 0 0 0 1 1 0 0 0 0 0
43 33.0 32.0 90.0 20.0 19 199 67 0 0 0 1 0 0 1 1 0 1
44 33.0 35.0 90.0 10.0 16 196 35 0 0 0 0 0 0 1 0 0 0
45 32.0 30.0 90.0 10.0 296 476 37 0 0 0 1 0 0 0 1 0 0
46 30.0 30.0 90.0 10.0 481 661 90 1 1 0 0 1 0 0 0 0 0
47 30.0 32.0 90.0 30.0 389 569 1 0 0 0 0 0 1 0 0 0 0
48 30.0 35.0 90.0 10.0 947 1127 68 1 0 0 0 0 0 0 0 0 1
49 28.0 30.0 90.0 10.0 573 753 20 0 0 0 0 0 1 0 0 0 0
50 28.0 35.0 90.0 10.0 944 1124 23 1 1 0 0 1 0 1 0 0 0
51 26.0 32.0 90.0 10.0 758 938 94 0 1 0 0 0 1 0 0 0 0
52 25.0 30.0 90.0 10.0 666 846 96 0 1 0 0 0 0 0 0 0 0
53 25.0 35.0 90.0 10.0 851 1031 12 0 0 0 0 0 0 0 0 0 1
54 44.0 5.0 90.0 20.0 227 407 13 1 0 0 0 0 1 0 0 1 0
55 42.0 10.0 90.0 40.0 132 312 15 0 0 0 0 0 1 0 0 0 0
56 42.0 15.0 90.0 10.0 37 217 39 0 0 0 0 0 0 0 0 0 1
57 40.0 5.0 90.0 30.0 321 501 57 0 0 0 0 0 1 1 0 1 0
58 40.0 15.0 90.0 40.0 35 215 78 0 0 0 0 0 0 1 0 1 0
59 38.0 5.0 90.0 30.0 413 593 47 0 0 1 0 0 0 1 0 0 0
60 38.0 15.0 90.0 10.0 606 786 30 0 0 1 0 0 0 1 0 0 0
61 35.0 5.0 90.0 20.0 506 686 4 0 0 0 0 0 1 0 1 1 0
62 50.0 30.0 90.0 10.0 481 661 4 0 0 0 0 0 1 0 0 0 0
63 50.0 35.0 90.0 20.0 200 380 79 0 1 1 0 0 0 0 0 0 0
64 50.0 40.0 90.0 50.0 105 285 45 0 0 0 1 0 0 0 0 0 0
65 48.0 30.0 90.0 10.0 573 753 23 0 1 0 0 0 0 0 0 0 1
66 48.0 40.0 90.0 10.0 13 193 71 0 0 0 0 0 1 1 1 0 0
67 47.0 35.0 90.0 10.0 761 941 68 0 0 1 0 0 0 0 1 0 0
68 47.0 40.0 90.0 10.0 12 192 24 1 0 1 0 0 0 0 0 0 0
69 45.0 30.0 90.0 10.0 666 846 1 0 0 0 0 0 0 1 0 0 0
70 45.0 35.0 90.0 10.0 853 1033 63 0 0 0 0 1 0 0 1 0 0
71 95.0 30.0 90.0 30.0 332 512 49 0 0 0 0 0 0 0 0 1 0
72 95.0 35.0 90.0 20.0 237 417 82 0 0 0 0 0 1 0 0 0 0
73 53.0 30.0 90.0 10.0 388 568 29 0 0 0 0 0 1 0 0 0 0
74 92.0 30.0 90.0 10.0 425 605 97 1 0 0 0 0 0 0 0 0 1
75 53.0 35.0 90.0 50.0 293 473 3 1 0 0 0 0 0 0 0 0 0
76 45.0 65.0 90.0 20.0 943 1123 50 0 0 0 1 0 0 0 0 1 0
77 90.0 35.0 90.0 10.0 142 322 9 0 0 0 0 0 1 0 0 0 0
78 88.0 30.0 90.0 10.0 519 699 42 0 0 1 1 0 0 0 0 0 1
79 88.0 35.0 90.0 20.0 50 230 43 0 0 0 0 1 1 0 0 0 0
80 87.0 30.0 90.0 10.0 610 790 69 0 0 0 0 0 1 1 1 1 0
81 85.0 25.0 90.0 10.0 705 885 50 1 1 0 0 0 0 0 0 0 1
82 85.0 35.0 90.0 30.0 47 227 8 0 0 0 0 0 0 0 1 0 0
83 75.0 55.0 90.0 20.0 305 485 67 1 0 0 0 0 0 0 0 0 0
84 72.0 55.0 90.0 10.0 212 392 26 0 1 0 0 0 0 0 0 1 0
85 70.0 58.0 90.0 20.0 401 581 23 0 0 0 0 0 1 0 0 0 0
86 68.0 60.0 90.0 30.0 494 674 14 1 1 0 0 0 0 0 0 1 1
87 66.0 55.0 90.0 10.0 116 296 77 0 0 0 0 1 0 0 1 1 0
88 65.0 55.0 90.0 20.0 25 205 56 0 1 0 0 1 0 1 0 0 0
89 65.0 60.0 90.0 30.0 587 767 92 0 0 0 1 0 0 0 0 0 0
90 63.0 58.0 90.0 10.0 680 860 9 0 0 0 0 0 0 1 0 1 0
91 60.0 55.0 90.0 10.0 20 200 29 0 0 0 0 0 1 0 0 0 0
92 60.0 60.0 90.0 10.0 773 953 45 0 0 0 0 1 0 0 0 0 1
93 67.0 85.0 90.0 20.0 315 495 90 0 0 1 0 0 0 0 0 0 1
94 65.0 85.0 90.0 40.0 407 587 24 0 0 0 0 0 0 0 0 1 0
95 65.0 82.0 90.0 10.0 221 401 66 0 0 0 1 0 0 1 0 0 0
96 62.0 80.0 90.0 30.0 128 308 88 1 0 0 0 0 0 0 0 0 0
97 60.0 80.0 90.0 10.0 36 216 36 0 1 1 0 1 0 0 0 1 0
98 60.0 85.0 90.0 30.0 502 682 77 0 0 0 0 0 1 0 0 0 0
99 58.0 75.0 90.0 20.0 30 210 29 0 1 0 0 1 1 0 1 0 0
100 55.0 80.0 90.0 10.0 692 872 1 0 0 1 0 0 0 0 0 1 1
101 55.0 85.0 90.0 20.0 597 777 37 1 0 0 0 0 1 0 0 0 1